; benchmark generated from python API
(set-info :status unknown)
(declare-datatypes ((RealState 0)) (((RMk1 (rval1 Real)) (RMk2 (rval2 Real)))))
 (assert
 (forall ((|v11:0| Real) )(forall ((|v10:1| Real) )(forall ((|v9:2| Real) )(forall ((|v8:3| Real) )(exists ((|v7:4_st| RealState) (val!4108 Real) )(exists ((|v6:5_st| RealState) (val!4109 Real) )(exists ((|v5:6_st| RealState) (val!4110 Real) )(exists ((|v4:7_st| RealState) (val!4111 Real) )(forall ((|v3:8| Real) )(forall ((|v2:9| Real) )(forall ((|v1:10| Real) )(forall ((|v0:11| Real) )(let ((?x1319 (- 5.0)))
 (let ((?x17 (+ (+ (* 5.0 |v2:9|) (* (- 1.0) |v10:1|)) (* (- 1.0) (rval2 |v7:4_st|)))))
 (let ((?x282 (- 8.0)))
 (let ((?x158 (* 18.0 |v3:8|)))
 (let ((?x1934 (rval2 |v7:4_st|)))
 (let ((?x1499 (* 11.0 ?x1934)))
 (let (($x1847 (<= (+ (+ (+ (* 15.0 (rval2 |v4:7_st|)) (* 20.0 |v2:9|)) ?x1499) ?x158) ?x282)))
 (let ((?x1253 (- 20.0)))
 (let ((?x233 (* ?x1253 |v3:8|)))
 (let ((?x1840 (* 2.0 |v10:1|)))
 (let ((?x489 (+ (+ (* (- 13.0) (rval2 |v6:5_st|)) (* (- 14.0) (rval2 |v4:7_st|))) ?x1840)))
 (let ((?x951 (- 11.0)))
 (let ((?x2023 (- 4.0)))
 (let ((?x1968 (* ?x2023 |v3:8|)))
 (let ((?x2603 (- 18.0)))
 (let ((?x1957 (* ?x2603 |v0:11|)))
 (let (($x1777 (<= (+ (+ (+ (* 4.0 (rval2 |v5:6_st|)) (* (- 13.0) |v0:11|)) ?x1957) ?x1968) ?x951)))
 (let (($x2668 (or (or $x1777 (<= (+ ?x489 ?x233) 15.0)) (and $x1847 (<= (+ ?x17 (* ?x1253 ?x1934)) ?x1319)))))
 (let ((?x2616 (+ (+ (+ (* 13.0 |v9:2|) (* 9.0 ?x1934)) (* (- 3.0) (rval2 |v5:6_st|))) (* 20.0 (rval2 |v4:7_st|)))))
 (let ((?x751 (+ (+ (+ (* (- 17.0) |v8:3|) (* 14.0 |v0:11|)) (* 6.0 |v0:11|)) (* 5.0 ?x1934))))
 (let ((?x111 (rval2 |v5:6_st|)))
 (let ((?x74 (- 15.0)))
 (let ((?x3198 (* ?x74 ?x111)))
 (let ((?x1393 (+ (+ (* (- 12.0) (rval2 |v4:7_st|)) (* ?x1319 |v8:3|)) (* (- 12.0) |v8:3|))))
 (let ((?x1642 (* 2.0 |v2:9|)))
 (let ((?x1165 (+ (+ (+ (* (- 19.0) ?x1934) (* 17.0 |v9:2|)) (* 3.0 ?x111)) ?x1642)))
 (let (($x2313 (or (and (<= ?x1165 16.0) (<= (+ ?x1393 ?x3198) 4.0)) (or (<= ?x751 3.0) (<= ?x2616 15.0)))))
 (let ((?x2961 (- 16.0)))
 (let ((?x1954 (* 3.0 |v0:11|)))
 (let (($x464 (<= (+ (+ (+ (* ?x2023 |v10:1|) (* 6.0 |v11:0|)) (* (- 7.0) |v11:0|)) ?x1954) ?x2961)))
 (let ((?x1418 (* 8.0 |v0:11|)))
 (let (($x3236 (<= (+ (+ (+ (* 4.0 |v0:11|) (* (- 14.0) |v1:10|)) |v10:1|) ?x1418) 17.0)))
 (let ((?x3180 (- 14.0)))
 (let ((?x1462 (+ (+ (+ (* 13.0 ?x111) (* 14.0 |v2:9|)) (* (- 9.0) ?x1934)) ?x1957)))
 (let ((?x2533 (* 11.0 |v0:11|)))
 (let ((?x900 (+ (+ (+ (* (- 7.0) |v3:8|) (* 18.0 ?x111)) (* (- 12.0) |v10:1|)) ?x2533)))
 (let ((?x816 (+ (+ (+ (* 18.0 |v8:3|) (* ?x951 |v0:11|)) (* 6.0 |v0:11|)) (* ?x951 (rval2 |v6:5_st|)))))
 (let ((?x2825 (+ (+ (* (- 13.0) ?x1934) (* (- 2.0) ?x1934)) (* (- 1.0) (rval2 |v4:7_st|)))))
 (let ((?x2944 (- 1.0)))
 (let ((?x2223 (+ (+ (+ (* (- 13.0) (rval2 |v4:7_st|)) (* 3.0 |v1:10|)) (* 10.0 ?x1934)) (* 0.0 (rval2 |v4:7_st|)))))
 (let (($x1896 (<= (+ (+ (+ (* ?x1253 |v1:10|) (* ?x2603 ?x111)) (* 0.0 |v10:1|)) |v9:2|) ?x3180)))
 (let (($x3200 (or (and $x1896 (<= ?x2223 ?x2944)) (or (<= (+ ?x2825 (* ?x3180 |v9:2|)) 14.0) (<= ?x816 ?x2961)))))
 (let (($x2725 (or $x3200 (or (and (<= ?x900 0.0) (<= ?x1462 ?x3180)) (and $x3236 $x464)))))
 (let ((?x168 (+ (+ (+ (* 5.0 |v10:1|) (* ?x2023 ?x111)) (* (- 6.0) |v11:0|)) (* 4.0 |v9:2|))))
 (let ((?x1794 (- 9.0)))
 (let ((?x2462 (* 15.0 |v9:2|)))
 (let ((?x423 (* 13.0 |v0:11|)))
 (let ((?x1651 (+ (+ (* ?x282 |v2:9|) (* 20.0 |v3:8|)) ?x423)))
 (let ((?x2775 (* 12.0 |v0:11|)))
 (let (($x1150 (<= (+ (+ (+ (* ?x2944 |v1:10|) (* 8.0 |v11:0|)) (* ?x2944 |v10:1|)) ?x2775) ?x2944)))
 (let ((?x1525 (* 20.0 |v11:0|)))
 (let ((?x1222 (+ (+ (* (- 10.0) |v10:1|) (* 18.0 (rval2 |v6:5_st|))) (* (- 19.0) |v10:1|))))
 (let ((?x651 (* 6.0 |v11:0|)))
 (let (($x1189 (<= (+ (+ (+ (* ?x1794 |v11:0|) (* 5.0 |v0:11|)) (* (- 12.0) |v9:2|)) ?x651) ?x951)))
 (let ((?x2226 (- 2.0)))
 (let ((?x716 (+ (+ (+ (* 12.0 |v10:1|) (* ?x1794 ?x1934)) (* ?x1794 |v9:2|)) (* ?x1253 |v11:0|))))
 (let ((?x3047 (* 10.0 ?x111)))
 (let (($x1254 (<= (+ (+ (+ (* ?x74 |v10:1|) (* 18.0 |v0:11|)) (* ?x1253 |v9:2|)) ?x3047) ?x1253)))
 (let ((?x1851 (- 3.0)))
 (let ((?x2567 (+ (+ (* ?x2023 |v0:11|) (* 13.0 |v1:10|)) (* ?x74 |v0:11|))))
 (let ((?x1073 (+ (+ (+ (* (- 19.0) |v9:2|) ?x3198) (* ?x2961 (rval2 |v6:5_st|))) (* 9.0 |v11:0|))))
 (let (($x933 (or (or (<= ?x1073 ?x2226) (<= (+ ?x2567 (* (- 7.0) |v10:1|)) ?x1851)) (or $x1254 (<= ?x716 ?x2226)))))
 (let ((?x1709 (* 10.0 |v9:2|)))
 (let (($x3191 (<= (+ (+ (+ (* ?x74 |v11:0|) (* 11.0 |v9:2|)) (* 14.0 |v11:0|)) ?x1709) ?x74)))
 (let ((?x1978 (* 14.0 |v11:0|)))
 (let (($x3141 (<= (+ (+ (+ (* ?x1794 |v9:2|) (* 19.0 |v9:2|)) (* ?x3180 |v10:1|)) ?x1978) 9.0)))
 (let ((?x1251 (+ (+ (+ (* (- 10.0) |v9:2|) (* ?x3180 |v3:8|)) (* ?x1794 |v2:9|)) (* ?x282 ?x111))))
 (let ((?x2370 (- 12.0)))
 (let ((?x1046 (* 15.0 |v10:1|)))
 (let ((?x2169 (+ (+ (+ (* 11.0 |v3:8|) (* 13.0 |v8:3|)) (* ?x2370 (rval2 |v4:7_st|))) ?x1046)))
 (let (($x33 (or (and (and (<= ?x2169 ?x2370) (or (<= ?x1251 ?x3180) $x3141)) $x3191) (and $x933 (and $x1189 (and (<= (+ ?x1222 ?x1525) ?x1253) $x1150))))))
 (let (($x3060 (or (and $x33 (<= (+ ?x1651 ?x2462) ?x1794)) (or (<= ?x168 1.0) (or $x2725 (and $x2313 $x2668))))))
 (let (($x3027 (not (= |v4:7_st| (RMk1 val!4111)))))
 (let (($x820 (not (= |v5:6_st| (RMk1 val!4110)))))
 (let (($x1286 (not (= |v6:5_st| (RMk1 val!4109)))))
 (let (($x2483 (not (= |v7:4_st| (RMk1 val!4108)))))
 (and $x2483 $x1286 $x820 $x3027 $x3060))))))))))))))))))))))))))))))))))))))))))))))))))))))))))))))))))))))))))))))
 )
 )
 )
 )
 )
 )
 )
 )
 )
 )
 )
 )
(check-sat)
